200
100
100
100
99
99
99
97
97
97
96
95
95
95
95
94
94
93
93
92
92
91
91
89
89
88
88
87
86
86
86
86
85
85
84
84
83
83
82
82
82
82
81
81
81
81
81
81
80
80
80
79
79
79
79
78
77
77
77
77
77
77
77
77
76
76
75
75
75
74
74
73
73
73
73
72
72
72
72
71
71
71
71
70
70
70
70
70
70
69
69
69
69
69
67
66
66
65
65
65
64
63
62
62
62
62
61
61
61
61
60
60
60
58
58
58
58
58
58
58
58
58
57
55
55
54
53
53
53
53
53
52
52
52
52
52
51
51
51
50
50
50
49
49
48
48
47
47
46
46
45
45
45
45
44
44
43
42
42
42
42
41
41
41
41
40
40
37
37
37
36
36
36
36
35
35
35
35
35
35
35
34
34
34
34
34
34
33
33
33
33
33
32
32
32
32
32
32
32
31
31
30
